* #variable= 20 #constraint= 1 #product= 1474 sizeproduct= 4660
min: +64 x1 x2 x3 x4 +64 x1 x2 x4 x5 +64 x1 x2 x5 x6 +64 x1 x2 x6 x7 +64 x1 x2 x7 x8 +64 x1 x2 x8 x9 +64 x1 x2 x9 x10 +64 x1 x2 x10 x11 +64 x1 x2 x11 x12 +64 x1 x2 x12 x13 +64 x1 x2 x13 x14 +64 x1 x2 x14 x15 +64 x1 x3 x4 x6 +64 x1 x3 x5 x7 +64 x1 x3 x6 x8 +64 x1 x3 x7 x9 +64 x1 x3 x8 x10 +64 x1 x3 x9 x11 +64 x1 x3 x10 x12 +64 x1 x3 x11 x13 +64 x1 x3 x12 x14 +64 x1 x3 x13 x15 +64 x1 x4 x5 x8 +64 x1 x4 x6 x9 +64 x1 x4 x7 x10 +64 x1 x4 x8 x11 +64 x1 x4 x9 x12 +64 x1 x4 x10 x13 +64 x1 x4 x11 x14 +64 x1 x4 x12 x15 +64 x1 x5 x6 x10 +64 x1 x5 x7 x11 +64 x1 x5 x8 x12 +64 x1 x5 x9 x13 +64 x1 x5 x10 x14 +64 x1 x5 x11 x15 +64 x1 x6 x7 x12 +64 x1 x6 x8 x13 +64 x1 x6 x9 x14 +64 x1 x6 x10 x15 +64 x1 x7 x8 x14 +64 x1 x7 x9 x15 +128 x2 x3 x4 x5 +128 x2 x3 x5 x6 +128 x2 x3 x6 x7 +128 x2 x3 x7 x8 +128 x2 x3 x8 x9 +128 x2 x3 x9 x10 +128 x2 x3 x10 x11 +128 x2 x3 x11 x12 +128 x2 x3 x12 x13 +128 x2 x3 x13 x14 +128 x2 x3 x14 x15 +64 x2 x3 x15 x16 +128 x2 x4 x5 x7 +128 x2 x4 x6 x8 +128 x2 x4 x7 x9 +128 x2 x4 x8 x10 +128 x2 x4 x9 x11 +128 x2 x4 x10 x12 +128 x2 x4 x11 x13 +128 x2 x4 x12 x14 +128 x2 x4 x13 x15 +64 x2 x4 x14 x16 +128 x2 x5 x6 x9 +128 x2 x5 x7 x10 +128 x2 x5 x8 x11 +128 x2 x5 x9 x12 +128 x2 x5 x10 x13 +128 x2 x5 x11 x14 +128 x2 x5 x12 x15 +64 x2 x5 x13 x16 +128 x2 x6 x7 x11 +128 x2 x6 x8 x12 +128 x2 x6 x9 x13 +128 x2 x6 x10 x14 +128 x2 x6 x11 x15 +64 x2 x6 x12 x16 +128 x2 x7 x8 x13 +128 x2 x7 x9 x14 +128 x2 x7 x10 x15 +64 x2 x7 x11 x16 +128 x2 x8 x9 x15 +64 x2 x8 x10 x16 +192 x3 x4 x5 x6 +192 x3 x4 x6 x7 +192 x3 x4 x7 x8 +192 x3 x4 x8 x9 +192 x3 x4 x9 x10 +192 x3 x4 x10 x11 +192 x3 x4 x11 x12 +192 x3 x4 x12 x13 +192 x3 x4 x13 x14 +192 x3 x4 x14 x15 +128 x3 x4 x15 x16 +64 x3 x4 x16 x17 +192 x3 x5 x6 x8 +192 x3 x5 x7 x9 +192 x3 x5 x8 x10 +192 x3 x5 x9 x11 +192 x3 x5 x10 x12 +192 x3 x5 x11 x13 +192 x3 x5 x12 x14 +192 x3 x5 x13 x15 +128 x3 x5 x14 x16 +64 x3 x5 x15 x17 +192 x3 x6 x7 x10 +192 x3 x6 x8 x11 +192 x3 x6 x9 x12 +192 x3 x6 x10 x13 +192 x3 x6 x11 x14 +192 x3 x6 x12 x15 +128 x3 x6 x13 x16 +64 x3 x6 x14 x17 +192 x3 x7 x8 x12 +192 x3 x7 x9 x13 +192 x3 x7 x10 x14 +192 x3 x7 x11 x15 +128 x3 x7 x12 x16 +64 x3 x7 x13 x17 +192 x3 x8 x9 x14 +192 x3 x8 x10 x15 +128 x3 x8 x11 x16 +64 x3 x8 x12 x17 +128 x3 x9 x10 x16 +64 x3 x9 x11 x17 +256 x4 x5 x6 x7 +256 x4 x5 x7 x8 +256 x4 x5 x8 x9 +256 x4 x5 x9 x10 +256 x4 x5 x10 x11 +256 x4 x5 x11 x12 +256 x4 x5 x12 x13 +256 x4 x5 x13 x14 +256 x4 x5 x14 x15 +192 x4 x5 x15 x16 +128 x4 x5 x16 x17 +64 x4 x5 x17 x18 +256 x4 x6 x7 x9 +256 x4 x6 x8 x10 +256 x4 x6 x9 x11 +256 x4 x6 x10 x12 +256 x4 x6 x11 x13 +256 x4 x6 x12 x14 +256 x4 x6 x13 x15 +192 x4 x6 x14 x16 +128 x4 x6 x15 x17 +64 x4 x6 x16 x18 +256 x4 x7 x8 x11 +256 x4 x7 x9 x12 +256 x4 x7 x10 x13 +256 x4 x7 x11 x14 +256 x4 x7 x12 x15 +192 x4 x7 x13 x16 +128 x4 x7 x14 x17 +64 x4 x7 x15 x18 +256 x4 x8 x9 x13 +256 x4 x8 x10 x14 +256 x4 x8 x11 x15 +192 x4 x8 x12 x16 +128 x4 x8 x13 x17 +64 x4 x8 x14 x18 +256 x4 x9 x10 x15 +192 x4 x9 x11 x16 +128 x4 x9 x12 x17 +64 x4 x9 x13 x18 +128 x4 x10 x11 x17 +64 x4 x10 x12 x18 +320 x5 x6 x7 x8 +320 x5 x6 x8 x9 +320 x5 x6 x9 x10 +320 x5 x6 x10 x11 +320 x5 x6 x11 x12 +320 x5 x6 x12 x13 +320 x5 x6 x13 x14 +320 x5 x6 x14 x15 +256 x5 x6 x15 x16 +192 x5 x6 x16 x17 +128 x5 x6 x17 x18 +64 x5 x6 x18 x19 +320 x5 x7 x8 x10 +320 x5 x7 x9 x11 +320 x5 x7 x10 x12 +320 x5 x7 x11 x13 +320 x5 x7 x12 x14 +320 x5 x7 x13 x15 +256 x5 x7 x14 x16 +192 x5 x7 x15 x17 +128 x5 x7 x16 x18 +64 x5 x7 x17 x19 +320 x5 x8 x9 x12 +320 x5 x8 x10 x13 +320 x5 x8 x11 x14 +320 x5 x8 x12 x15 +256 x5 x8 x13 x16 +192 x5 x8 x14 x17 +128 x5 x8 x15 x18 +64 x5 x8 x16 x19 +320 x5 x9 x10 x14 +320 x5 x9 x11 x15 +256 x5 x9 x12 x16 +192 x5 x9 x13 x17 +128 x5 x9 x14 x18 +64 x5 x9 x15 x19 +256 x5 x10 x11 x16 +192 x5 x10 x12 x17 +128 x5 x10 x13 x18 +64 x5 x10 x14 x19 +128 x5 x11 x12 x18 +64 x5 x11 x13 x19 +384 x6 x7 x8 x9 +384 x6 x7 x9 x10 +384 x6 x7 x10 x11 +384 x6 x7 x11 x12 +384 x6 x7 x12 x13 +384 x6 x7 x13 x14 +384 x6 x7 x14 x15 +320 x6 x7 x15 x16 +256 x6 x7 x16 x17 +192 x6 x7 x17 x18 +128 x6 x7 x18 x19 +64 x6 x7 x19 x20 +384 x6 x8 x9 x11 +384 x6 x8 x10 x12 +384 x6 x8 x11 x13 +384 x6 x8 x12 x14 +384 x6 x8 x13 x15 +320 x6 x8 x14 x16 +256 x6 x8 x15 x17 +192 x6 x8 x16 x18 +128 x6 x8 x17 x19 +64 x6 x8 x18 x20 +384 x6 x9 x10 x13 +384 x6 x9 x11 x14 +384 x6 x9 x12 x15 +320 x6 x9 x13 x16 +256 x6 x9 x14 x17 +192 x6 x9 x15 x18 +128 x6 x9 x16 x19 +64 x6 x9 x17 x20 +384 x6 x10 x11 x15 +320 x6 x10 x12 x16 +256 x6 x10 x13 x17 +192 x6 x10 x14 x18 +128 x6 x10 x15 x19 +64 x6 x10 x16 x20 +256 x6 x11 x12 x17 +192 x6 x11 x13 x18 +128 x6 x11 x14 x19 +64 x6 x11 x15 x20 +128 x6 x12 x13 x19 +64 x6 x12 x14 x20 +384 x7 x8 x9 x10 +384 x7 x8 x10 x11 +384 x7 x8 x11 x12 +448 x7 x8 x12 x13 +448 x7 x8 x13 x14 +384 x7 x8 x14 x15 +320 x7 x8 x15 x16 +256 x7 x8 x16 x17 +192 x7 x8 x17 x18 +128 x7 x8 x18 x19 +64 x7 x8 x19 x20 +384 x7 x9 x10 x12 +448 x7 x9 x11 x13 +448 x7 x9 x12 x14 +384 x7 x9 x13 x15 +320 x7 x9 x14 x16 +256 x7 x9 x15 x17 +192 x7 x9 x16 x18 +128 x7 x9 x17 x19 +64 x7 x9 x18 x20 +448 x7 x10 x11 x14 +384 x7 x10 x12 x15 +320 x7 x10 x13 x16 +256 x7 x10 x14 x17 +192 x7 x10 x15 x18 +128 x7 x10 x16 x19 +64 x7 x10 x17 x20 +320 x7 x11 x12 x16 +256 x7 x11 x13 x17 +192 x7 x11 x14 x18 +128 x7 x11 x15 x19 +64 x7 x11 x16 x20 +192 x7 x12 x13 x18 +128 x7 x12 x14 x19 +64 x7 x12 x15 x20 +64 x7 x13 x14 x20 +384 x8 x9 x10 x11 +384 x8 x9 x11 x12 +384 x8 x9 x12 x13 +448 x8 x9 x13 x14 +384 x8 x9 x14 x15 +320 x8 x9 x15 x16 +256 x8 x9 x16 x17 +192 x8 x9 x17 x18 +128 x8 x9 x18 x19 +64 x8 x9 x19 x20 +384 x8 x10 x11 x13 +448 x8 x10 x12 x14 +384 x8 x10 x13 x15 +320 x8 x10 x14 x16 +256 x8 x10 x15 x17 +192 x8 x10 x16 x18 +128 x8 x10 x17 x19 +64 x8 x10 x18 x20 +384 x8 x11 x12 x15 +320 x8 x11 x13 x16 +256 x8 x11 x14 x17 +192 x8 x11 x15 x18 +128 x8 x11 x16 x19 +64 x8 x11 x17 x20 +256 x8 x12 x13 x17 +192 x8 x12 x14 x18 +128 x8 x12 x15 x19 +64 x8 x12 x16 x20 +128 x8 x13 x14 x19 +64 x8 x13 x15 x20 +384 x9 x10 x11 x12 +384 x9 x10 x12 x13 +384 x9 x10 x13 x14 +384 x9 x10 x14 x15 +320 x9 x10 x15 x16 +256 x9 x10 x16 x17 +192 x9 x10 x17 x18 +128 x9 x10 x18 x19 +64 x9 x10 x19 x20 +384 x9 x11 x12 x14 +384 x9 x11 x13 x15 +320 x9 x11 x14 x16 +256 x9 x11 x15 x17 +192 x9 x11 x16 x18 +128 x9 x11 x17 x19 +64 x9 x11 x18 x20 +320 x9 x12 x13 x16 +256 x9 x12 x14 x17 +192 x9 x12 x15 x18 +128 x9 x12 x16 x19 +64 x9 x12 x17 x20 +192 x9 x13 x14 x18 +128 x9 x13 x15 x19 +64 x9 x13 x16 x20 +64 x9 x14 x15 x20 +384 x10 x11 x12 x13 +384 x10 x11 x13 x14 +384 x10 x11 x14 x15 +320 x10 x11 x15 x16 +256 x10 x11 x16 x17 +192 x10 x11 x17 x18 +128 x10 x11 x18 x19 +64 x10 x11 x19 x20 +384 x10 x12 x13 x15 +320 x10 x12 x14 x16 +256 x10 x12 x15 x17 +192 x10 x12 x16 x18 +128 x10 x12 x17 x19 +64 x10 x12 x18 x20 +256 x10 x13 x14 x17 +192 x10 x13 x15 x18 +128 x10 x13 x16 x19 +64 x10 x13 x17 x20 +128 x10 x14 x15 x19 +64 x10 x14 x16 x20 +384 x11 x12 x13 x14 +384 x11 x12 x14 x15 +320 x11 x12 x15 x16 +256 x11 x12 x16 x17 +192 x11 x12 x17 x18 +128 x11 x12 x18 x19 +64 x11 x12 x19 x20 +320 x11 x13 x14 x16 +256 x11 x13 x15 x17 +192 x11 x13 x16 x18 +128 x11 x13 x17 x19 +64 x11 x13 x18 x20 +192 x11 x14 x15 x18 +128 x11 x14 x16 x19 +64 x11 x14 x17 x20 +64 x11 x15 x16 x20 +384 x12 x13 x14 x15 +320 x12 x13 x15 x16 +256 x12 x13 x16 x17 +192 x12 x13 x17 x18 +128 x12 x13 x18 x19 +64 x12 x13 x19 x20 +256 x12 x14 x15 x17 +192 x12 x14 x16 x18 +128 x12 x14 x17 x19 +64 x12 x14 x18 x20 +128 x12 x15 x16 x19 +64 x12 x15 x17 x20 +320 x13 x14 x15 x16 +256 x13 x14 x16 x17 +192 x13 x14 x17 x18 +128 x13 x14 x18 x19 +64 x13 x14 x19 x20 +192 x13 x15 x16 x18 +128 x13 x15 x17 x19 +64 x13 x15 x18 x20 +64 x13 x16 x17 x20 +256 x14 x15 x16 x17 +192 x14 x15 x17 x18 +128 x14 x15 x18 x19 +64 x14 x15 x19 x20 +128 x14 x16 x17 x19 +64 x14 x16 x18 x20 +192 x15 x16 x17 x18 +128 x15 x16 x18 x19 +64 x15 x16 x19 x20 +64 x15 x17 x18 x20 +128 x16 x17 x18 x19 +64 x16 x17 x19 x20 +64 x17 x18 x19 x20 -32 x1 x2 x3 -64 x1 x2 x4 -64 x1 x2 x5 -64 x1 x2 x6 -64 x1 x2 x7 -64 x1 x2 x8 -64 x1 x2 x9 -64 x1 x2 x10 -64 x1 x2 x11 -64 x1 x2 x12 -64 x1 x2 x13 -64 x1 x2 x14 -32 x1 x2 x15 -64 x1 x3 x4 -32 x1 x3 x5 -64 x1 x3 x6 -64 x1 x3 x7 -64 x1 x3 x8 -64 x1 x3 x9 -64 x1 x3 x10 -64 x1 x3 x11 -64 x1 x3 x12 -64 x1 x3 x13 -32 x1 x3 x14 -32 x1 x3 x15 -64 x1 x4 x5 -64 x1 x4 x6 -32 x1 x4 x7 -64 x1 x4 x8 -64 x1 x4 x9 -64 x1 x4 x10 -64 x1 x4 x11 -64 x1 x4 x12 -32 x1 x4 x13 -32 x1 x4 x14 -32 x1 x4 x15 -64 x1 x5 x6 -64 x1 x5 x7 -64 x1 x5 x8 -32 x1 x5 x9 -64 x1 x5 x10 -64 x1 x5 x11 -32 x1 x5 x12 -32 x1 x5 x13 -32 x1 x5 x14 -32 x1 x5 x15 -64 x1 x6 x7 -64 x1 x6 x8 -64 x1 x6 x9 -64 x1 x6 x10 -32 x1 x6 x12 -32 x1 x6 x13 -32 x1 x6 x14 -32 x1 x6 x15 -64 x1 x7 x8 -64 x1 x7 x9 -32 x1 x7 x10 -32 x1 x7 x11 -32 x1 x7 x12 -32 x1 x7 x14 -32 x1 x7 x15 -32 x1 x8 x9 -32 x1 x8 x10 -32 x1 x8 x11 -32 x1 x8 x12 -32 x1 x8 x13 -32 x1 x8 x14 -32 x1 x9 x10 -32 x1 x9 x11 -32 x1 x9 x12 -32 x1 x9 x13 -32 x1 x9 x14 -32 x1 x9 x15 -32 x1 x10 x11 -32 x1 x10 x12 -32 x1 x10 x13 -32 x1 x10 x14 -32 x1 x10 x15 -32 x1 x11 x12 -32 x1 x11 x13 -32 x1 x11 x14 -32 x1 x11 x15 -32 x1 x12 x13 -32 x1 x12 x14 -32 x1 x12 x15 -32 x1 x13 x14 -32 x1 x13 x15 -32 x1 x14 x15 -96 x2 x3 x4 -128 x2 x3 x5 -128 x2 x3 x6 -128 x2 x3 x7 -128 x2 x3 x8 -128 x2 x3 x9 -128 x2 x3 x10 -128 x2 x3 x11 -128 x2 x3 x12 -128 x2 x3 x13 -128 x2 x3 x14 -96 x2 x3 x15 -32 x2 x3 x16 -160 x2 x4 x5 -64 x2 x4 x6 -128 x2 x4 x7 -128 x2 x4 x8 -128 x2 x4 x9 -128 x2 x4 x10 -128 x2 x4 x11 -128 x2 x4 x12 -128 x2 x4 x13 -96 x2 x4 x14 -64 x2 x4 x15 -32 x2 x4 x16 -160 x2 x5 x6 -128 x2 x5 x7 -64 x2 x5 x8 -128 x2 x5 x9 -128 x2 x5 x10 -128 x2 x5 x11 -128 x2 x5 x12 -96 x2 x5 x13 -64 x2 x5 x14 -64 x2 x5 x15 -32 x2 x5 x16 -160 x2 x6 x7 -128 x2 x6 x8 -128 x2 x6 x9 -64 x2 x6 x10 -128 x2 x6 x11 -96 x2 x6 x12 -64 x2 x6 x13 -64 x2 x6 x14 -64 x2 x6 x15 -32 x2 x6 x16 -160 x2 x7 x8 -128 x2 x7 x9 -128 x2 x7 x10 -96 x2 x7 x11 -64 x2 x7 x13 -64 x2 x7 x14 -64 x2 x7 x15 -32 x2 x7 x16 -160 x2 x8 x9 -96 x2 x8 x10 -64 x2 x8 x11 -64 x2 x8 x12 -64 x2 x8 x13 -64 x2 x8 x15 -32 x2 x8 x16 -96 x2 x9 x10 -64 x2 x9 x11 -64 x2 x9 x12 -64 x2 x9 x13 -64 x2 x9 x14 -64 x2 x9 x15 -96 x2 x10 x11 -64 x2 x10 x12 -64 x2 x10 x13 -64 x2 x10 x14 -64 x2 x10 x15 -32 x2 x10 x16 -96 x2 x11 x12 -64 x2 x11 x13 -64 x2 x11 x14 -64 x2 x11 x15 -32 x2 x11 x16 -96 x2 x12 x13 -64 x2 x12 x14 -64 x2 x12 x15 -32 x2 x12 x16 -96 x2 x13 x14 -64 x2 x13 x15 -32 x2 x13 x16 -96 x2 x14 x15 -32 x2 x14 x16 -32 x2 x15 x16 -160 x3 x4 x5 -224 x3 x4 x6 -192 x3 x4 x7 -192 x3 x4 x8 -192 x3 x4 x9 -192 x3 x4 x10 -192 x3 x4 x11 -192 x3 x4 x12 -192 x3 x4 x13 -192 x3 x4 x14 -160 x3 x4 x15 -96 x3 x4 x16 -32 x3 x4 x17 -256 x3 x5 x6 -128 x3 x5 x7 -192 x3 x5 x8 -192 x3 x5 x9 -192 x3 x5 x10 -192 x3 x5 x11 -192 x3 x5 x12 -192 x3 x5 x13 -160 x3 x5 x14 -128 x3 x5 x15 -64 x3 x5 x16 -32 x3 x5 x17 -256 x3 x6 x7 -224 x3 x6 x8 -96 x3 x6 x9 -192 x3 x6 x10 -192 x3 x6 x11 -192 x3 x6 x12 -160 x3 x6 x13 -128 x3 x6 x14 -96 x3 x6 x15 -64 x3 x6 x16 -32 x3 x6 x17 -256 x3 x7 x8 -224 x3 x7 x9 -192 x3 x7 x10 -96 x3 x7 x11 -160 x3 x7 x12 -128 x3 x7 x13 -96 x3 x7 x14 -96 x3 x7 x15 -64 x3 x7 x16 -32 x3 x7 x17 -256 x3 x8 x9 -224 x3 x8 x10 -160 x3 x8 x11 -128 x3 x8 x12 -96 x3 x8 x14 -96 x3 x8 x15 -64 x3 x8 x16 -32 x3 x8 x17 -224 x3 x9 x10 -160 x3 x9 x11 -96 x3 x9 x12 -96 x3 x9 x13 -96 x3 x9 x14 -64 x3 x9 x16 -32 x3 x9 x17 -160 x3 x10 x11 -128 x3 x10 x12 -96 x3 x10 x13 -96 x3 x10 x14 -96 x3 x10 x15 -64 x3 x10 x16 -160 x3 x11 x12 -128 x3 x11 x13 -96 x3 x11 x14 -96 x3 x11 x15 -64 x3 x11 x16 -32 x3 x11 x17 -160 x3 x12 x13 -128 x3 x12 x14 -96 x3 x12 x15 -64 x3 x12 x16 -32 x3 x12 x17 -160 x3 x13 x14 -128 x3 x13 x15 -64 x3 x13 x16 -32 x3 x13 x17 -160 x3 x14 x15 -64 x3 x14 x16 -32 x3 x14 x17 -96 x3 x15 x16 -32 x3 x15 x17 -32 x3 x16 x17 -224 x4 x5 x6 -320 x4 x5 x7 -288 x4 x5 x8 -256 x4 x5 x9 -256 x4 x5 x10 -256 x4 x5 x11 -256 x4 x5 x12 -256 x4 x5 x13 -256 x4 x5 x14 -224 x4 x5 x15 -160 x4 x5 x16 -96 x4 x5 x17 -32 x4 x5 x18 -352 x4 x6 x7 -192 x4 x6 x8 -288 x4 x6 x9 -256 x4 x6 x10 -256 x4 x6 x11 -256 x4 x6 x12 -256 x4 x6 x13 -224 x4 x6 x14 -192 x4 x6 x15 -128 x4 x6 x16 -64 x4 x6 x17 -32 x4 x6 x18 -352 x4 x7 x8 -320 x4 x7 x9 -160 x4 x7 x10 -256 x4 x7 x11 -256 x4 x7 x12 -224 x4 x7 x13 -192 x4 x7 x14 -160 x4 x7 x15 -96 x4 x7 x16 -64 x4 x7 x17 -32 x4 x7 x18 -352 x4 x8 x9 -320 x4 x8 x10 -288 x4 x8 x11 -96 x4 x8 x12 -192 x4 x8 x13 -160 x4 x8 x14 -128 x4 x8 x15 -96 x4 x8 x16 -64 x4 x8 x17 -32 x4 x8 x18 -352 x4 x9 x10 -288 x4 x9 x11 -224 x4 x9 x12 -160 x4 x9 x13 -128 x4 x9 x15 -96 x4 x9 x16 -64 x4 x9 x17 -32 x4 x9 x18 -288 x4 x10 x11 -224 x4 x10 x12 -160 x4 x10 x13 -128 x4 x10 x14 -128 x4 x10 x15 -64 x4 x10 x17 -32 x4 x10 x18 -224 x4 x11 x12 -192 x4 x11 x13 -160 x4 x11 x14 -128 x4 x11 x15 -96 x4 x11 x16 -64 x4 x11 x17 -224 x4 x12 x13 -192 x4 x12 x14 -160 x4 x12 x15 -96 x4 x12 x16 -64 x4 x12 x17 -32 x4 x12 x18 -224 x4 x13 x14 -192 x4 x13 x15 -96 x4 x13 x16 -64 x4 x13 x17 -32 x4 x13 x18 -224 x4 x14 x15 -128 x4 x14 x16 -64 x4 x14 x17 -32 x4 x14 x18 -160 x4 x15 x16 -64 x4 x15 x17 -32 x4 x15 x18 -96 x4 x16 x17 -32 x4 x16 x18 -32 x4 x17 x18 -288 x5 x6 x7 -416 x5 x6 x8 -384 x5 x6 x9 -352 x5 x6 x10 -320 x5 x6 x11 -320 x5 x6 x12 -320 x5 x6 x13 -320 x5 x6 x14 -288 x5 x6 x15 -224 x5 x6 x16 -160 x5 x6 x17 -96 x5 x6 x18 -32 x5 x6 x19 -448 x5 x7 x8 -256 x5 x7 x9 -384 x5 x7 x10 -352 x5 x7 x11 -320 x5 x7 x12 -320 x5 x7 x13 -288 x5 x7 x14 -256 x5 x7 x15 -192 x5 x7 x16 -128 x5 x7 x17 -64 x5 x7 x18 -32 x5 x7 x19 -448 x5 x8 x9 -416 x5 x8 x10 -224 x5 x8 x11 -352 x5 x8 x12 -288 x5 x8 x13 -256 x5 x8 x14 -224 x5 x8 x15 -160 x5 x8 x16 -96 x5 x8 x17 -64 x5 x8 x18 -32 x5 x8 x19 -448 x5 x9 x10 -416 x5 x9 x11 -352 x5 x9 x12 -128 x5 x9 x13 -224 x5 x9 x14 -192 x5 x9 x15 -128 x5 x9 x16 -96 x5 x9 x17 -64 x5 x9 x18 -32 x5 x9 x19 -416 x5 x10 x11 -352 x5 x10 x12 -288 x5 x10 x13 -224 x5 x10 x14 -128 x5 x10 x16 -96 x5 x10 x17 -64 x5 x10 x18 -32 x5 x10 x19 -352 x5 x11 x12 -288 x5 x11 x13 -224 x5 x11 x14 -192 x5 x11 x15 -128 x5 x11 x16 -64 x5 x11 x18 -32 x5 x11 x19 -288 x5 x12 x13 -256 x5 x12 x14 -224 x5 x12 x15 -128 x5 x12 x16 -96 x5 x12 x17 -64 x5 x12 x18 -288 x5 x13 x14 -256 x5 x13 x15 -160 x5 x13 x16 -96 x5 x13 x17 -64 x5 x13 x18 -32 x5 x13 x19 -288 x5 x14 x15 -192 x5 x14 x16 -96 x5 x14 x17 -64 x5 x14 x18 -32 x5 x14 x19 -224 x5 x15 x16 -128 x5 x15 x17 -64 x5 x15 x18 -32 x5 x15 x19 -160 x5 x16 x17 -64 x5 x16 x18 -32 x5 x16 x19 -96 x5 x17 x18 -32 x5 x17 x19 -32 x5 x18 x19 -352 x6 x7 x8 -512 x6 x7 x9 -480 x6 x7 x10 -448 x6 x7 x11 -416 x6 x7 x12 -384 x6 x7 x13 -384 x6 x7 x14 -352 x6 x7 x15 -288 x6 x7 x16 -224 x6 x7 x17 -160 x6 x7 x18 -96 x6 x7 x19 -32 x6 x7 x20 -544 x6 x8 x9 -320 x6 x8 x10 -480 x6 x8 x11 -448 x6 x8 x12 -416 x6 x8 x13 -352 x6 x8 x14 -320 x6 x8 x15 -256 x6 x8 x16 -192 x6 x8 x17 -128 x6 x8 x18 -64 x6 x8 x19 -32 x6 x8 x20 -544 x6 x9 x10 -512 x6 x9 x11 -288 x6 x9 x12 -416 x6 x9 x13 -352 x6 x9 x14 -288 x6 x9 x15 -224 x6 x9 x16 -160 x6 x9 x17 -96 x6 x9 x18 -64 x6 x9 x19 -32 x6 x9 x20 -544 x6 x10 x11 -480 x6 x10 x12 -416 x6 x10 x13 -160 x6 x10 x14 -288 x6 x10 x15 -192 x6 x10 x16 -128 x6 x10 x17 -96 x6 x10 x18 -64 x6 x10 x19 -32 x6 x10 x20 -480 x6 x11 x12 -416 x6 x11 x13 -352 x6 x11 x14 -288 x6 x11 x15 -128 x6 x11 x17 -96 x6 x11 x18 -64 x6 x11 x19 -32 x6 x11 x20 -416 x6 x12 x13 -352 x6 x12 x14 -288 x6 x12 x15 -192 x6 x12 x16 -128 x6 x12 x17 -64 x6 x12 x19 -32 x6 x12 x20 -352 x6 x13 x14 -320 x6 x13 x15 -224 x6 x13 x16 -128 x6 x13 x17 -96 x6 x13 x18 -64 x6 x13 x19 -352 x6 x14 x15 -256 x6 x14 x16 -160 x6 x14 x17 -96 x6 x14 x18 -64 x6 x14 x19 -32 x6 x14 x20 -288 x6 x15 x16 -192 x6 x15 x17 -96 x6 x15 x18 -64 x6 x15 x19 -32 x6 x15 x20 -224 x6 x16 x17 -128 x6 x16 x18 -64 x6 x16 x19 -32 x6 x16 x20 -160 x6 x17 x18 -64 x6 x17 x19 -32 x6 x17 x20 -96 x6 x18 x19 -32 x6 x18 x20 -32 x6 x19 x20 -384 x7 x8 x9 -544 x7 x8 x10 -512 x7 x8 x11 -512 x7 x8 x12 -512 x7 x8 x13 -448 x7 x8 x14 -352 x7 x8 x15 -288 x7 x8 x16 -224 x7 x8 x17 -160 x7 x8 x18 -96 x7 x8 x19 -32 x7 x8 x20 -576 x7 x9 x10 -384 x7 x9 x11 -544 x7 x9 x12 -512 x7 x9 x13 -448 x7 x9 x14 -352 x7 x9 x15 -256 x7 x9 x16 -192 x7 x9 x17 -128 x7 x9 x18 -64 x7 x9 x19 -32 x7 x9 x20 -608 x7 x10 x11 -544 x7 x10 x12 -288 x7 x10 x13 -448 x7 x10 x14 -352 x7 x10 x15 -224 x7 x10 x16 -160 x7 x10 x17 -96 x7 x10 x18 -64 x7 x10 x19 -32 x7 x10 x20 -544 x7 x11 x12 -512 x7 x11 x13 -448 x7 x11 x14 -160 x7 x11 x15 -224 x7 x11 x16 -128 x7 x11 x17 -96 x7 x11 x18 -64 x7 x11 x19 -32 x7 x11 x20 -512 x7 x12 x13 -448 x7 x12 x14 -352 x7 x12 x15 -224 x7 x12 x16 -96 x7 x12 x18 -64 x7 x12 x19 -32 x7 x12 x20 -448 x7 x13 x14 -352 x7 x13 x15 -256 x7 x13 x16 -160 x7 x13 x17 -96 x7 x13 x18 -32 x7 x13 x20 -384 x7 x14 x15 -288 x7 x14 x16 -192 x7 x14 x17 -96 x7 x14 x18 -64 x7 x14 x19 -32 x7 x14 x20 -320 x7 x15 x16 -224 x7 x15 x17 -128 x7 x15 x18 -64 x7 x15 x19 -32 x7 x15 x20 -256 x7 x16 x17 -160 x7 x16 x18 -64 x7 x16 x19 -32 x7 x16 x20 -192 x7 x17 x18 -96 x7 x17 x19 -32 x7 x17 x20 -128 x7 x18 x19 -32 x7 x18 x20 -64 x7 x19 x20 -384 x8 x9 x10 -576 x8 x9 x11 -544 x8 x9 x12 -544 x8 x9 x13 -512 x8 x9 x14 -416 x8 x9 x15 -288 x8 x9 x16 -224 x8 x9 x17 -160 x8 x9 x18 -96 x8 x9 x19 -32 x8 x9 x20 -576 x8 x10 x11 -416 x8 x10 x12 -544 x8 x10 x13 -512 x8 x10 x14 -416 x8 x10 x15 -288 x8 x10 x16 -192 x8 x10 x17 -128 x8 x10 x18 -64 x8 x10 x19 -32 x8 x10 x20 -576 x8 x11 x12 -544 x8 x11 x13 -288 x8 x11 x14 -416 x8 x11 x15 -288 x8 x11 x16 -160 x8 x11 x17 -96 x8 x11 x18 -64 x8 x11 x19 -32 x8 x11 x20 -544 x8 x12 x13 -512 x8 x12 x14 -416 x8 x12 x15 -128 x8 x12 x16 -160 x8 x12 x17 -96 x8 x12 x18 -64 x8 x12 x19 -32 x8 x12 x20 -512 x8 x13 x14 -416 x8 x13 x15 -288 x8 x13 x16 -192 x8 x13 x17 -64 x8 x13 x19 -32 x8 x13 x20 -384 x8 x14 x15 -320 x8 x14 x16 -224 x8 x14 x17 -128 x8 x14 x18 -64 x8 x14 x19 -320 x8 x15 x16 -256 x8 x15 x17 -160 x8 x15 x18 -64 x8 x15 x19 -32 x8 x15 x20 -256 x8 x16 x17 -192 x8 x16 x18 -96 x8 x16 x19 -32 x8 x16 x20 -192 x8 x17 x18 -128 x8 x17 x19 -32 x8 x17 x20 -128 x8 x18 x19 -64 x8 x18 x20 -64 x8 x19 x20 -384 x9 x10 x11 -576 x9 x10 x12 -576 x9 x10 x13 -544 x9 x10 x14 -480 x9 x10 x15 -352 x9 x10 x16 -224 x9 x10 x17 -160 x9 x10 x18 -96 x9 x10 x19 -32 x9 x10 x20 -576 x9 x11 x12 -416 x9 x11 x13 -544 x9 x11 x14 -480 x9 x11 x15 -352 x9 x11 x16 -224 x9 x11 x17 -128 x9 x11 x18 -64 x9 x11 x19 -32 x9 x11 x20 -544 x9 x12 x13 -544 x9 x12 x14 -288 x9 x12 x15 -352 x9 x12 x16 -224 x9 x12 x17 -96 x9 x12 x18 -64 x9 x12 x19 -32 x9 x12 x20 -512 x9 x13 x14 -448 x9 x13 x15 -352 x9 x13 x16 -96 x9 x13 x17 -128 x9 x13 x18 -64 x9 x13 x19 -32 x9 x13 x20 -416 x9 x14 x15 -320 x9 x14 x16 -256 x9 x14 x17 -160 x9 x14 x18 -32 x9 x14 x20 -320 x9 x15 x16 -256 x9 x15 x17 -192 x9 x15 x18 -96 x9 x15 x19 -32 x9 x15 x20 -256 x9 x16 x17 -192 x9 x16 x18 -128 x9 x16 x19 -32 x9 x16 x20 -192 x9 x17 x18 -128 x9 x17 x19 -64 x9 x17 x20 -128 x9 x18 x19 -64 x9 x18 x20 -64 x9 x19 x20 -384 x10 x11 x12 -576 x10 x11 x13 -608 x10 x11 x14 -544 x10 x11 x15 -416 x10 x11 x16 -288 x10 x11 x17 -160 x10 x11 x18 -96 x10 x11 x19 -32 x10 x11 x20 -576 x10 x12 x13 -384 x10 x12 x14 -512 x10 x12 x15 -416 x10 x12 x16 -288 x10 x12 x17 -160 x10 x12 x18 -64 x10 x12 x19 -32 x10 x12 x20 -512 x10 x13 x14 -480 x10 x13 x15 -224 x10 x13 x16 -288 x10 x13 x17 -160 x10 x13 x18 -64 x10 x13 x19 -32 x10 x13 x20 -448 x10 x14 x15 -352 x10 x14 x16 -256 x10 x14 x17 -96 x10 x14 x18 -96 x10 x14 x19 -32 x10 x14 x20 -320 x10 x15 x16 -256 x10 x15 x17 -192 x10 x15 x18 -128 x10 x15 x19 -256 x10 x16 x17 -192 x10 x16 x18 -128 x10 x16 x19 -64 x10 x16 x20 -192 x10 x17 x18 -128 x10 x17 x19 -64 x10 x17 x20 -128 x10 x18 x19 -64 x10 x18 x20 -64 x10 x19 x20 -384 x11 x12 x13 -576 x11 x12 x14 -544 x11 x12 x15 -448 x11 x12 x16 -352 x11 x12 x17 -224 x11 x12 x18 -96 x11 x12 x19 -32 x11 x12 x20 -544 x11 x13 x14 -320 x11 x13 x15 -416 x11 x13 x16 -320 x11 x13 x17 -224 x11 x13 x18 -96 x11 x13 x19 -32 x11 x13 x20 -480 x11 x14 x15 -384 x11 x14 x16 -160 x11 x14 x17 -192 x11 x14 x18 -128 x11 x14 x19 -32 x11 x14 x20 -352 x11 x15 x16 -256 x11 x15 x17 -192 x11 x15 x18 -64 x11 x15 x19 -64 x11 x15 x20 -256 x11 x16 x17 -192 x11 x16 x18 -128 x11 x16 x19 -64 x11 x16 x20 -192 x11 x17 x18 -128 x11 x17 x19 -64 x11 x17 x20 -128 x11 x18 x19 -64 x11 x18 x20 -64 x11 x19 x20 -384 x12 x13 x14 -544 x12 x13 x15 -448 x12 x13 x16 -352 x12 x13 x17 -256 x12 x13 x18 -160 x12 x13 x19 -32 x12 x13 x20 -512 x12 x14 x15 -256 x12 x14 x16 -320 x12 x14 x17 -224 x12 x14 x18 -128 x12 x14 x19 -64 x12 x14 x20 -384 x12 x15 x16 -288 x12 x15 x17 -96 x12 x15 x18 -128 x12 x15 x19 -64 x12 x15 x20 -256 x12 x16 x17 -192 x12 x16 x18 -128 x12 x16 x19 -32 x12 x16 x20 -192 x12 x17 x18 -128 x12 x17 x19 -64 x12 x17 x20 -128 x12 x18 x19 -64 x12 x18 x20 -64 x12 x19 x20 -352 x13 x14 x15 -448 x13 x14 x16 -352 x13 x14 x17 -256 x13 x14 x18 -160 x13 x14 x19 -64 x13 x14 x20 -416 x13 x15 x16 -192 x13 x15 x17 -224 x13 x15 x18 -128 x13 x15 x19 -64 x13 x15 x20 -288 x13 x16 x17 -192 x13 x16 x18 -64 x13 x16 x19 -64 x13 x16 x20 -192 x13 x17 x18 -128 x13 x17 x19 -64 x13 x17 x20 -128 x13 x18 x19 -64 x13 x18 x20 -64 x13 x19 x20 -288 x14 x15 x16 -352 x14 x15 x17 -256 x14 x15 x18 -160 x14 x15 x19 -64 x14 x15 x20 -320 x14 x16 x17 -128 x14 x16 x18 -128 x14 x16 x19 -64 x14 x16 x20 -192 x14 x17 x18 -128 x14 x17 x19 -32 x14 x17 x20 -128 x14 x18 x19 -64 x14 x18 x20 -64 x14 x19 x20 -224 x15 x16 x17 -256 x15 x16 x18 -160 x15 x16 x19 -64 x15 x16 x20 -224 x15 x17 x18 -64 x15 x17 x19 -64 x15 x17 x20 -128 x15 x18 x19 -64 x15 x18 x20 -64 x15 x19 x20 -160 x16 x17 x18 -160 x16 x17 x19 -64 x16 x17 x20 -128 x16 x18 x19 -32 x16 x18 x20 -64 x16 x19 x20 -96 x17 x18 x19 -64 x17 x18 x20 -64 x17 x19 x20 -32 x18 x19 x20 +192 x1 x2 +184 x1 x3 +176 x1 x4 +168 x1 x5 +160 x1 x6 +152 x1 x7 +144 x1 x8 +152 x1 x9 +144 x1 x10 +136 x1 x11 +128 x1 x12 +120 x1 x13 +112 x1 x14 +104 x1 x15 +384 x2 x3 +384 x2 x4 +368 x2 x5 +352 x2 x6 +336 x2 x7 +320 x2 x8 +320 x2 x9 +320 x2 x10 +304 x2 x11 +288 x2 x12 +272 x2 x13 +256 x2 x14 +224 x2 x15 +104 x2 x16 +592 x3 x4 +584 x3 x5 +576 x3 x6 +552 x3 x7 +528 x3 x8 +504 x3 x9 +512 x3 x10 +504 x3 x11 +480 x3 x12 +456 x3 x13 +416 x3 x14 +376 x3 x15 +224 x3 x16 +104 x3 x17 +816 x4 x5 +800 x4 x6 +784 x4 x7 +768 x4 x8 +736 x4 x9 +720 x4 x10 +720 x4 x11 +704 x4 x12 +656 x4 x13 +608 x4 x14 +544 x4 x15 +376 x4 x16 +224 x4 x17 +104 x4 x18 +1056 x5 x6 +1032 x5 x7 +1008 x5 x8 +984 x5 x9 +960 x5 x10 +952 x5 x11 +928 x5 x12 +888 x5 x13 +816 x5 x14 +744 x5 x15 +544 x5 x16 +376 x5 x17 +224 x5 x18 +104 x5 x19 +1312 x6 x7 +1280 x6 x8 +1248 x6 x9 +1216 x6 x10 +1184 x6 x11 +1168 x6 x12 +1120 x6 x13 +1056 x6 x14 +960 x6 x15 +744 x6 x16 +544 x6 x17 +376 x6 x18 +224 x6 x19 +104 x6 x20 +1424 x7 x8 +1392 x7 x9 +1328 x7 x10 +1296 x7 x11 +1264 x7 x12 +1248 x7 x13 +1200 x7 x14 +1056 x7 x15 +816 x7 x16 +608 x7 x17 +416 x7 x18 +256 x7 x19 +112 x7 x20 +1488 x8 x9 +1424 x8 x10 +1344 x8 x11 +1328 x8 x12 +1296 x8 x13 +1248 x8 x14 +1120 x8 x15 +888 x8 x16 +656 x8 x17 +456 x8 x18 +272 x8 x19 +120 x8 x20 +1520 x9 x10 +1456 x9 x11 +1360 x9 x12 +1328 x9 x13 +1264 x9 x14 +1168 x9 x15 +928 x9 x16 +704 x9 x17 +480 x9 x18 +288 x9 x19 +128 x9 x20 +1552 x10 x11 +1456 x10 x12 +1344 x10 x13 +1296 x10 x14 +1184 x10 x15 +952 x10 x16 +720 x10 x17 +504 x10 x18 +304 x10 x19 +136 x10 x20 +1520 x11 x12 +1424 x11 x13 +1328 x11 x14 +1216 x11 x15 +960 x11 x16 +720 x11 x17 +512 x11 x18 +320 x11 x19 +144 x11 x20 +1488 x12 x13 +1392 x12 x14 +1248 x12 x15 +984 x12 x16 +736 x12 x17 +504 x12 x18 +320 x12 x19 +152 x12 x20 +1424 x13 x14 +1280 x13 x15 +1008 x13 x16 +768 x13 x17 +528 x13 x18 +320 x13 x19 +144 x13 x20 +1312 x14 x15 +1032 x14 x16 +784 x14 x17 +552 x14 x18 +336 x14 x19 +152 x14 x20 +1056 x15 x16 +800 x15 x17 +576 x15 x18 +352 x15 x19 +160 x15 x20 +816 x16 x17 +584 x16 x18 +368 x16 x19 +168 x16 x20 +592 x17 x18 +384 x17 x19 +176 x17 x20 +384 x18 x19 +184 x18 x20 +192 x19 x20 -364 x1 -772 x2 -1216 x3 -1688 x4 -2180 x5 -2684 x6 -2868 x7 -2956 x8 -3012 x9 -3036 x10 -3036 x11 -3012 x12 -2956 x13 -2868 x14 -2684 x15 -2180 x16 -1688 x17 -1216 x18 -772 x19 -364 x20 ;
+1 x1 >= 0 ;
